100 8
322 450
72 416
198 352
805 424
87 219
831 521
146 496
729 130
480 886
428 623
556 954
73 539
516 732
99 271
761 249
561 131
721 670
443 818
530 441
567 175
770 129
414 258
753 506
809 814
25 398
479 469
657 818
168 417
747 369
482 239
698 666
896 744
89 219
387 636
317 609
526 360
224 160
472 326
645 280
741 779
485 591
199 319
516 889
554 930
122 313
100 135
147 427
879 147
346 309
685 272
744 325
101 204
138 244
577 846
193 516
557 517
912 822
790 271
572 806
468 238
627 731
876 454
448 148
199 557
168 477
570 825
547 422
857 209
85 577
106 690
543 618
145 293
487 546
595 825
575 839
531 896
620 939
451 559
494 826
843 387
836 476
621 322
435 870
922 508
810 779
232 589
21 475
819 115
63 686
443 212
862 381
65 577
561 470
685 217
718 222
514 213
195 461
111 146
807 143
565 326
